20
 N1C2W4_A 
 120 50 0 
100
99
97
97
96
96
95
92
92
90
90
88
87
87
85
84
83
82
81
79
74
68
68
63
59
58
56
55
55
51
50
49
49
49
47
44
44
42
39
37
37
34
34
34
33
33
31
30
30
30
 N1C2W4_B 
 120 50 0 
99
96
94
93
93
91
87
87
87
84
84
83
83
83
83
83
82
81
81
78
77
77
77
76
67
65
61
61
59
58
53
53
50
49
48
47
47
46
46
44
43
42
41
41
38
35
34
32
32
31
 N1C2W4_C 
 120 50 0 
100
100
99
96
96
93
91
90
90
87
84
83
80
80
80
75
74
72
72
71
71
70
69
66
65
63
60
58
57
56
54
54
53
53
53
51
51
49
46
43
40
39
38
37
37
34
33
33
31
31
 N1C2W4_D 
 120 50 0 
97
97
96
94
93
91
89
89
86
83
79
78
77
77
77
75
75
74
71
68
68
67
65
63
61
61
58
57
56
54
48
46
44
43
41
41
40
38
36
36
35
35
35
35
35
34
33
33
33
31
 N1C2W4_E 
 120 50 0 
100
99
99
97
97
96
96
96
93
93
91
84
83
81
79
78
77
74
71
67
66
63
62
61
61
61
59
59
59
58
57
56
54
54
53
53
51
50
49
48
45
45
45
40
40
39
39
34
32
30
 N1C2W4_F 
 120 50 0 
99
98
98
97
96
93
88
86
86
85
85
81
80
80
77
76
74
73
73
72
69
69
67
66
66
65
64
63
63
62
60
59
59
59
54
54
51
49
49
46
43
43
38
38
38
38
36
36
35
33
 N1C2W4_G 
 120 50 0 
100
99
99
97
95
93
91
91
90
90
88
88
87
86
82
80
79
75
70
69
68
66
66
64
62
62
61
60
60
57
56
55
53
51
47
46
44
42
38
37
36
36
36
36
35
35
32
32
31
31
 N1C2W4_H 
 120 50 0 
99
98
97
95
94
93
93
93
92
91
91
89
86
85
81
77
74
70
69
68
67
66
66
65
63
62
61
60
59
58
57
57
56
56
52
50
49
48
47
43
43
43
40
39
37
36
36
35
30
30
 N1C2W4_I 
 120 50 0 
97
92
91
88
87
86
85
85
84
84
84
83
80
80
79
78
76
76
76
76
75
75
75
74
74
74
72
71
71
70
67
63
59
59
57
55
55
54
50
49
44
42
40
38
37
35
31
31
30
30
 N1C2W4_J 
 120 50 0 
100
97
96
90
86
84
83
82
79
78
76
74
72
70
70
70
68
68
67
67
66
66
66
65
64
64
63
63
62
59
57
57
57
55
54
54
51
49
48
47
43
41
40
40
37
37
34
33
32
32
 N1C2W4_K 
 120 50 0 
100
100
100
99
98
93
91
89
88
87
84
82
80
80
78
78
77
77
77
76
75
75
73
71
71
70
65
61
61
60
59
58
58
55
53
52
51
49
49
44
43
42
40
40
40
39
38
38
32
32
 N1C2W4_L 
 120 50 0 
99
99
98
98
94
93
92
90
90
89
89
88
84
81
79
78
77
77
76
75
74
72
72
70
69
66
64
63
60
57
57
56
54
52
47
45
43
43
43
41
40
39
39
38
37
37
36
35
34
30
 N1C2W4_M 
 120 50 0 
99
99
99
97
95
94
92
91
90
90
90
90
88
83
79
78
78
76
76
70
68
67
66
63
62
62
61
60
58
58
58
58
56
56
55
54
53
51
50
48
48
47
42
37
37
37
36
32
31
30
 N1C2W4_N 
 120 50 0 
98
96
93
92
91
91
91
90
90
90
89
89
88
88
84
82
77
76
76
75
74
73
72
69
69
66
65
59
59
58
57
56
54
53
52
52
51
51
49
48
47
47
46
42
41
40
39
36
35
33
 N1C2W4_O 
 120 50 0 
100
97
94
93
91
91
86
84
83
78
78
78
77
77
77
77
75
74
74
73
71
69
68
64
64
62
62
61
57
54
54
53
50
49
49
48
47
47
47
46
45
45
44
44
42
40
39
35
35
35
 N1C2W4_P 
 120 50 0 
98
98
95
95
93
91
91
89
89
87
83
83
82
78
77
76
75
74
72
67
62
61
59
57
55
55
54
52
50
49
49
48
47
47
45
45
44
44
43
43
42
40
39
39
38
37
36
33
33
31
 N1C2W4_Q 
 120 50 0 
100
98
98
98
91
90
90
88
87
87
87
86
86
83
82
81
80
80
76
73
72
71
71
70
69
68
68
67
67
66
65
64
60
54
53
52
52
47
46
46
46
41
40
37
37
36
36
35
34
33
 N1C2W4_R 
 120 50 0 
100
99
99
98
95
95
95
94
90
87
87
86
85
85
83
82
80
79
79
76
73
73
72
71
70
69
69
68
68
66
65
63
63
62
58
57
56
55
54
53
52
49
47
46
46
43
42
35
34
31
 N1C2W4_S 
 120 50 0 
98
98
93
93
93
92
92
92
92
90
89
86
86
85
85
84
83
83
83
81
81
78
77
77
75
74
71
70
70
68
66
66
65
65
63
62
61
61
59
57
50
50
49
49
47
44
40
32
31
30
 N1C2W4_T 
 120 50 0 
97
95
91
89
88
87
86
83
82
82
81
73
73
69
69
68
68
68
65
62
61
60
60
60
58
58
58
56
55
54
54
52
51
51
51
49
49
47
45
44
43
42
42
41
41
40
36
33
30
30
